%nproc=1
%chk=ts3-opt-freq.chk
#p external="python3 -u ../pes/h4n_anion_pes.py" opt=(nomicro,ts,noeigen,calcall)

H^- + NH3 -> NhH4^-

-1 1
 H         -0.9532156459       -0.1119924583       -0.3893540725
 H          0.3795895630        0.8815138885       -0.3893639326
 H          0.5735923055       -0.7694776066       -0.3894425720
 H          0.0000275874       -0.0000283937        1.5044539435
 N          0.0000004454       -0.0000011104       -0.0242000996

