%nproc=1
%oldchk=ts-opt-freq.chk
#p external="python3 -u ../pes/ch3cn_pes.py" irc=(calcall,stepsize=3,maxpoint=100) geom=allcheck

