%nproc=1
%oldchk=ts2-opt-freq.chk
#p external="python3 -u ../pes/h4cclo_pes.py" irc=(calcall,stepsize=10,maxpoint=100,lqa) geom=allcheck


