%nproc=1
%chk=ts2-opt-freq.chk
#p external="python3 -u ../pes/h4cfo_pes.py"  opt=(nomicro,ts,noeigen,calcall,maxcycle=1)

F + CH3OH -> HF + CH2OH

0 2
 H      -1.41096100     -0.91256400      0.43170800
 H       0.17278800      1.37340600     -0.03198700
 H       0.71897900     -0.30850500     -0.27999800
 H       0.38781300      0.30644800      1.35913500
 C       0.05667000      0.34243200      0.28990000
 F       0.62999400     -0.64783300      2.59616900
 O      -1.30153900      0.00419600      0.16099800

