%nproc=1
%chk=H2-opt-freq.chk
#p external="python3 -u ../pes/h2_pes.py" opt=nomicro

H2

0 1
 H      0.00000000    0.00000000    0.00000000
 H      0.00000000    0.00000000    0.74172494


--link1--
%nproc=1
%chk=H2-opt-freq.chk
#p external="python3 -u ../pes/h2_pes.py" freq geom=allcheck

