%nproc=1
%chk=SiH4-opt-freq.chk
#p external="python3 -u ../pes/sih4_pes.py" opt=(nomicro,tight)

Title Card Required

0 1
 H          0.3745195015        1.3439962080        0.4915059500
 H         -0.0014075950       -0.0013357377       -1.4792948382
 H          0.9769915422       -0.9952515905        0.4930513233
 H         -1.3500989508       -0.3474048829        0.4946759576
 Si        -0.0000044979       -0.0000039970       -0.0000023827


--link1--
%nproc=1
%chk=SiH4-opt-freq.chk
#p external="python3 -u ../pes/sih4_pes.py" freq geom=allcheck


