%nproc=1
%chk=ts2-opt-freq.chk
#p external="python3 -u ../pes/h4sicl_pes.py" opt=(ts,calcall,noeigen,nomicro,saddle=2)

Title Card Required

0 2
 H                  0.00000000    0.00000000    1.48106996
 H                  1.36580290    0.00000000   -0.57284437
 H                 -0.69008237   -1.21749127   -0.45888793
 H                 -0.21419683    1.59279789   -0.14243566
 Si                 0.00000000    0.00000000    0.00000000
 Cl                -1.75450204    1.23576472   -1.16670103

