%nproc=1
%chk=H2-CH3O-opt-freq.chk
#p external="python3 -u ../pes/h2_ch3o_pes.py" opt=nomicro

H2

0 1
 H          0.0000000000        0.0000000000       -0.3708705760
 H          0.0000000000        0.0000000000        0.3708705760


--link1--
%nproc=1
%chk=H2-CH3O-opt-freq.chk
#p external="python3 -u ../pes/h2_ch3o_pes.py" freq geom=allcheck

