%nproc=1
%chk=ts1-opt-freq.chk
#p external="python3 -u ../pes/h5co_pes.py" opt=(nomicro,ts,noeigen,calcall)

H + CH3OH -> H2 + CH3O

0 2
 H         -1.6408049087       -0.0000594445       -1.5317684799
 H         -0.8182729795        0.0000985620       -1.2554045975
 H          0.8618133685        0.0001451936        1.2882953916
 H         -0.6488635153       -0.8963598764        1.0449623822
 H         -0.6490938438        0.8962388242        1.0448967893
 C         -0.0946536649       -0.0000004581        0.7581187604
 O          0.2534529489       -0.0000036413       -0.6063626329

