%nproc=1
%chk=ts2-opt-freq.chk
#p external="python3 -u ../pes/h5co_pes.py" opt=(nomicro,ts,noeigen,calcall)

H + CH3OH -> H2 + CH2OH

0 2
 H         -0.7509057514       -0.4871196639       -1.0063900325
 H          0.8388441817        0.8040356905        0.9376119674
 H         -0.9754044510        0.6554256565        0.9473354772
 H          0.0654205921       -0.8897247733        1.3313890088
 H          0.1199476410       -1.7358231953        1.7956775297
 C         -0.0256158545        0.2255693480        0.6278638060
 O          0.0634614093       -0.0651887380       -0.7236959373

