%nproc=1
%chk=H2S-opt-freq.chk
#p external="python3 -u ../pes/h2s_pes.py" opt=(nomicro,calcall)

H2S

0 1
 H       0.00000000     -0.96543800      0.87283600
 H       0.00000000      0.96543800      0.87283600
 S       0.00000000      0.00000000     -0.05483400

