%nproc=1
%chk=min-4-opt-freq.chk
#p external="python3 -u ../pes/h4s2_pes.py" opt=(nomicro,calcall,gdiis)

min-4

0 1
 H       2.34220626      1.11366224      0.30643235
 H       1.02853058      0.25085049     -0.82118535
 H      -2.34408232     -1.11447379     -0.30244512
 H      -1.02320902     -0.24949372      0.81512709
 S       2.02910230     -0.14601838     -0.02295237
 S      -2.02996633      0.14574967      0.02387268

