%nproc=1
%chk=ts-2-opt-freq.chk
#p external="python3 -u ../pes/h4s2_pes.py" opt=(nomicro,calcall,ts,noeigen)

ts-2

0 1
 H      -2.24860215      1.28912717      0.02734253
 H       2.14281607      1.17371425      0.56456649
 H       1.90518016     -0.66557573      1.10352141
 H      -0.76976966      0.05639544     -0.17993877
 S      -2.09239534     -0.04069607      0.02461966
 S       2.06596692     -0.01157805     -0.05435231

