%nproc=1
%chk=ts-4-opt-freq.chk
#p external="python3 -u ../pes/h4s2_pes.py" opt=(nomicro,calcall,ts,noeigen)

ts-4

0 1
 H       1.51258414      1.26837395     -0.00000116
 H      -1.51258845      1.26836792     -0.00000207
 H       0.00000060     -0.08575367      0.72973446
 H       0.00000011     -0.08575430     -0.72973278
 S       1.51504699     -0.07378892      0.00000028
 S      -1.51504638     -0.07379497      0.00000129

